 vasp.6.0.8 29Jun18 (build Mar 14 2019 11:44:20) complex

 executed on             LinuxIFC date 2023.09.16  12:34:07

 INCAR:
 POTCAR:    PAW_PBE Si 05Jan2001
 POTCAR:    PAW_PBE O 08Apr2002
 POTCAR:    PAW_PBE C 08Apr2002
 POTCAR:    PAW_PBE H 15Jun2001
 POTCAR:    PAW_PBE F 08Apr2002
 POTCAR:    PAW_PBE Si 05Jan2001
   VRHFIN =Si: s2p2

   TITEL  = PAW_PBE Si 05Jan2001
   POMASS =   28.085; ZVAL   =    4.000    mass and valenz
   ENMAX  =  245.345; ENMIN  =  184.009 eV

   TITEL  = PAW_PBE O 08Apr2002
   POMASS =   16.000; ZVAL   =    6.000    mass and valenz
   ENMAX  =  400.000; ENMIN  =  300.000 eV

[...]

   TITEL  = PAW_PBE H 15Jun2001
   POMASS =    1.000; ZVAL   =    1.000    mass and valenz
   ENMAX  =  250.000; ENMIN  =  200.000 eV

   TITEL  = PAW_PBE F 08Apr2002
   POMASS =   18.998; ZVAL   =    7.000    mass and valenz
   ENMAX  =  400.000; ENMIN  =  300.000 eV

 Optimization of the real space projectors (new method)

 maximal supplied QI-value         = 19.84
 optimisation between [QCUT,QGAM] = [ 11.31, 22.82] = [ 35.82,145.81] Ry
 Optimized for a Real-space Cutoff    1.20 Angstroem

   l    n(q)    QCUT    max X(q) W(low)/X(q) W(high)/X(q)  e(spline)
   0      8    11.310   159.560    0.13E-03    0.16E-03    0.42E-07
   0      8    11.310   115.863    0.12E-03    0.16E-03    0.41E-07
   1      8    11.310    88.339    0.16E-03    0.14E-03    0.80E-07
   1      8    11.310    48.592    0.16E-03    0.14E-03    0.78E-07
 Optimization of the real space projectors (new method)

[...]

   l    n(q)    QCUT    max X(q) W(low)/X(q) W(high)/X(q)  e(spline)
   0      8    11.287    19.460    0.22E-03    0.50E-03    0.19E-06
   0      8    11.287    12.209    0.21E-03    0.48E-03    0.18E-06
   1      8    11.287     4.655    0.21E-03    0.11E-04    0.26E-06
 Optimization of the real space projectors (new method)

 maximal supplied QI-value         = 24.76
 optimisation between [QCUT,QGAM] = [ 11.39, 22.77] = [ 36.31,145.25] Ry
 Optimized for a Real-space Cutoff    1.10 Angstroem

   l    n(q)    QCUT    max X(q) W(low)/X(q) W(high)/X(q)  e(spline)
   0      7    11.387    14.049    0.19E-03    0.36E-03    0.12E-06
   0      7    11.387     8.945    0.22E-03    0.47E-03    0.17E-06
   1      7    11.387     7.086    0.20E-03    0.70E-03    0.23E-06
   1      7    11.387     6.747    0.18E-03    0.60E-03    0.21E-06
  PAW_PBE Si 05Jan2001                  :
  PAW_PBE O 08Apr2002                   :
  PAW_PBE C 08Apr2002                   :
  PAW_PBE H 15Jun2001                   :
  PAW_PBE F 08Apr2002                   :

 POSCAR: Si  O  C  H  F
  positions in cartesian coordinates
 exchange correlation table for  LEXCH =        8
   RHO(1)=    0.500       N(1)  =     2000
   RHO(2)=  100.500       N(2)  =     4000

 ion  position               nearest neighbor table
   1  0.770  0.443  0.638-  88 1.61  92 1.64  93 1.65  15 1.87
   2  0.841  0.010  0.712- 106 1.52 101 1.57  95 1.61  30 1.72
   3  0.628  0.572  0.248-  87 1.61  78 1.71  94 1.83  58 2.02  23 2.23
   4  0.933  0.516  0.304-  73 1.53 100 1.64  24 1.77  74 1.97  78 2.45
   5  0.283  0.554  0.461- 108 1.58  82 1.63  91 1.68 104 1.84
   6  0.483  0.665  0.782-  10 1.62  98 1.63  76 1.78 103 1.82  46 1.88  44 2.38
   7  0.906  0.121  0.306-  55 1.27
   8  0.921  0.936  0.453-  43 1.27  55 2.01
   9  0.840  0.084  0.993-  61 1.20
  10  0.439  0.759  0.670-  41 1.30   6 1.62
  11  0.593  0.146  0.925-  39 1.17
  12  0.584  0.260  0.346-  68 0.98  36 1.64
  13  0.487  0.324  0.048-  38 1.26
  14  0.868  0.473  0.946-  35 1.32
  15  0.660  0.372  0.520-  36 1.32   1 1.87
  16  0.285  0.872  0.055-  37 1.45  60 1.50
  17  0.006  0.549  0.706-  34 1.11
  18  0.091  0.792  0.375-  53 1.22
  19  0.505  0.714  0.056-  54 1.35  58 1.35  46 1.48
  20  0.153  0.457  0.829-  32 1.24  34 1.57
  21  0.744  0.167  0.485-  36 1.45  30 1.47  55 1.55
  22  0.607  0.046  0.580-  48 1.35  65 1.55  30 1.64
  23  0.664  0.771  0.306-  64 1.37  42 1.49  27 1.54   3 2.23
  24  0.936  0.348  0.300-  49 1.41   4 1.77
  25  0.347  0.984  0.720-  83 1.44  99 1.52  29 1.60  41 1.63
  26  0.459  0.903  0.379-  45 1.42  27 1.73
  27  0.524  0.796  0.274-  54 1.34  23 1.54  26 1.73
  28  0.099  0.760  0.819-  77 1.35 107 1.40
  29  0.288  0.936  0.850-  63 1.35  37 1.57  25 1.60
  30  0.758  0.079  0.591-  21 1.47  22 1.64   2 1.72
  31  0.169  0.187  0.558-  79 1.35  57 1.37  59 1.56
  32  0.152  0.485  0.943-  20 1.24  33 1.39
  33  0.218  0.581  0.002-  72 1.13  32 1.39  89 1.48  80 1.69
  34  0.024  0.459  0.756-  17 1.11  96 1.43  20 1.57
  35  0.795  0.571  0.923-  14 1.32  52 1.36
  36  0.637  0.253  0.491-  15 1.32  21 1.45  65 1.59  12 1.64
  37  0.345  0.833  0.939-  46 1.39  16 1.45  29 1.57
  38  0.533  0.423  0.003-  13 1.26  44 1.35
  39  0.633  0.213  0.846-  11 1.17
  40  0.198  0.121  0.980-  63 1.28  66 1.60
  41  0.428  0.878  0.642-  10 1.30  48 1.53  25 1.63  45 1.67
  42  0.759  0.823  0.216-  69 1.30  23 1.49  97 1.50  64 1.62
  43  0.816  0.954  0.398-   8 1.27  64 1.35  55 1.47
  44  0.571  0.518  0.927-  38 1.35  52 1.55   6 2.38
  45  0.386  0.889  0.490-  26 1.42  41 1.67
  46  0.442  0.744  0.935-  37 1.39  19 1.48   6 1.88
  47  0.435  0.021  0.159-  70 1.41  81 1.48  56 1.55  60 1.59
  48  0.550  0.932  0.588- 105 1.35  22 1.35  41 1.53
  49  0.007  0.276  0.386-  57 1.38  24 1.41
  50  0.269  0.127  0.318-  56 1.30  51 1.41  59 1.49
  51  0.226  0.178  0.202-  50 1.41  56 1.43  86 1.47  66 1.61
  52  0.679  0.608  0.964-  35 1.36  58 1.42  44 1.55
  53  0.142  0.891  0.404-  18 1.22
  54  0.494  0.798  0.151-  27 1.34  19 1.35  60 1.56
  55  0.831  0.092  0.395-   7 1.27  43 1.47  21 1.55   8 2.01
  56  0.345  0.117  0.222-  50 1.30  51 1.43  47 1.55
  57  0.066  0.231  0.493-  31 1.37  49 1.38  85 1.55
  58  0.613  0.648  0.073-  19 1.35  52 1.42   3 2.02
  59  0.269  0.152  0.456-  50 1.49  31 1.56  62 1.64
  60  0.375  0.884  0.163-  16 1.50  54 1.56  47 1.59
[...]
  94  0.661  0.607  0.414-   3 1.83
  95  0.927  0.103  0.795-   2 1.61
  96  0.970  0.336  0.768-  34 1.43
  97  0.878  0.752  0.188-  42 1.50
  98  0.534  0.577  0.667-   6 1.63
  99  0.439  0.091  0.742-  25 1.52
 100  0.084  0.547  0.315-   4 1.64
 101  0.970  0.957  0.662-   2 1.57
 102  0.042  0.020  0.149-  66 1.62
 103  0.360  0.547  0.797-   6 1.82
 104  0.167  0.430  0.496-   5 1.84
 105  0.652  0.857  0.597-  48 1.35
 106  0.783  0.917  0.804-   2 1.52
 107  0.037  0.866  0.864-  28 1.40
 108  0.346  0.612  0.340-   5 1.58

IMPORTANT INFORMATION: All symmetrisations will be switched off!
NOSYMM: (Re-)initialisation of all symmetry stuff for point group C_1.

                                     Primitive cell

  volume of cell :    1191.9263

  direct lattice vectors                    reciprocal lattice vectors
    10.602700000  0.000000000  0.000000000     0.094315599  0.000000000  0.000000000
     0.000000000 10.602700000  0.000000000     0.000000000  0.094315599  0.000000000
     0.000000000  0.000000000 10.602700000     0.000000000  0.000000000  0.094315599

  length of vectors
    10.602700000 10.602700000 10.602700000     0.094315599  0.094315599  0.094315599

  position of ions in fractional coordinates (direct lattice)
     0.770276370  0.442550340  0.638440530
     0.840754110  0.009728370  0.711955280
     0.628390810  0.571886680  0.247649140
     0.932765610  0.515687210  0.303645220
     0.283232090  0.553549150  0.460905170
     0.483488420  0.664856260  0.782299590
     0.905938660  0.120783480  0.306388490
     0.921025500  0.935988980  0.453433130
     0.839524260  0.083697630  0.993143230
     0.439156820  0.759077320  0.670045690
     0.593429520  0.146323350  0.924914460
     0.584029370  0.259946630  0.346088650
     0.486617100  0.323614040  0.047656040
     0.867817910  0.472870420  0.945940170
     0.659674340  0.371535800  0.520326080
     0.284791520  0.871734060  0.055213430
     0.006030410  0.548990110  0.706132320
     0.090888630  0.792035560  0.375173740
     0.504811300  0.714108330  0.056185220
     0.152573310  0.457443220  0.829240880
     0.743892980  0.167206970  0.484630100
     0.606541090  0.046324460  0.580442670
     0.663685390  0.770684710  0.305635510
     0.935628990  0.348446050  0.300320930
     0.347278000  0.983798220  0.719607740
     0.458856980  0.902900150  0.378701900
     0.524024520  0.795967750  0.273601580
     0.099367960  0.759587500  0.819053050
     0.287606850  0.936375060  0.849667860
     0.757504350  0.079188520  0.591315320
     0.169194960  0.187056750  0.557870430
     0.151999230  0.484648420  0.942636430
     0.217907470  0.581174980  0.001680590
     0.023906550  0.458791100  0.756403740
     0.794933830  0.571110460  0.922629320
     0.637469620  0.252778110  0.491445010
     0.344664220  0.832806260  0.938607040
     0.533037750  0.422915120  0.002501480
     0.632745610  0.213084150  0.846146550
     0.198338480  0.121038690  0.979618200
     0.427748870  0.878295850  0.641815930
     0.758928230  0.823344630  0.216374550
     0.815875250  0.954102800  0.398069750
     0.570914940  0.517542260  0.926946790
     0.385955900  0.889240560  0.490145230
     0.441602330  0.744334240  0.935052070
     0.434578120  0.020962540  0.159150690
     0.550119990  0.932213090  0.588065350
     0.006677290  0.275654110  0.386072310
     0.268851840  0.127261730  0.318085440
     0.226193810  0.178136770  0.202422780
     0.679045780  0.607969830  0.964164520
     0.141762700  0.891037190  0.404314740
     0.493842920  0.798210520  0.151246610
     0.830536560  0.091832530  0.394818570
     0.344633090  0.117476310  0.222363470
     0.065719320  0.230554520  0.493094090
     0.612628120  0.647814480  0.073449590
     0.269025230  0.151802440  0.456175540
     0.375146840  0.883755000  0.163260810
[...]
     0.661408010  0.607429830  0.413538830
     0.927105130  0.103319490  0.794929330
     0.969560310  0.336065200  0.768329810
     0.877688640  0.751629830  0.188142830
     0.534467100  0.576631210  0.666793790
     0.439338130  0.091433230  0.741855360
     0.083726140  0.546596390  0.314874710
     0.969598150  0.957183600  0.661819780
     0.042042300  0.019550860  0.149305190
     0.359970930  0.547009830  0.797434950
     0.166628210  0.430306970  0.495640450
     0.651910710  0.856574660  0.596526820
     0.782580410  0.917005780  0.804300250
     0.037309990  0.866425350  0.864444840
     0.346012890  0.612316890  0.339559060

  ion indices of the primitive-cell ions
   primitive index   ion index
                 1           1
                 2           2
                 3           3
                 4           4
                 5           5
                 6           6
                 7           7
                 8           8
                 9           9
                10          10
                11          11
                12          12
                13          13
                14          14
                15          15
                16          16
                17          17
                18          18
                19          19
                20          20
                21          21
                22          22
[...]
   0.290E+02 0.213E+02 0.140E+03   -.330E+02 -.216E+02 -.143E+03   0.831E+01 -.457E+01 0.975E+01   -.176E-02 -.872E-03 0.122E-02
   -.277E+02 0.170E+02 -.925E+02   0.293E+02 -.253E+02 0.967E+02   -.149E+01 0.756E+01 -.337E+01   0.150E-02 -.646E-03 -.101E-02
   0.262E+02 -.148E+02 0.615E+02   -.255E+02 0.164E+02 -.637E+02   -.369E+01 -.709E+01 0.392E+01   0.711E-03 0.197E-03 0.229E-02
   0.372E+02 0.784E+01 -.525E+02   -.395E+02 -.107E+02 0.567E+02   0.468E+01 0.454E+01 0.872E+00   -.343E-04 0.615E-03 0.162E-02
   0.673E+02 0.173E+03 -.817E+02   -.749E+02 -.202E+03 0.892E+02   0.557E+01 0.305E+02 -.860E+01   0.642E-03 0.634E-03 -.243E-02
   -.258E+02 -.214E+02 -.503E+02   0.281E+02 0.186E+02 0.495E+02   0.158E+01 0.171E+01 0.222E+00   0.231E-02 -.869E-04 -.180E-02
   0.122E+02 0.603E+01 -.755E+02   -.105E+02 -.660E+01 0.762E+02   -.102E+02 0.231E+01 -.327E+01   -.130E-02 -.969E-03 0.170E-02
   -.408E+02 0.326E+02 0.821E+02   0.409E+02 -.362E+02 -.907E+02   0.281E+01 0.485E+01 0.422E+01   0.531E-03 -.104E-02 0.266E-03
   0.414E+02 0.122E+03 -.113E+03   -.460E+02 -.126E+03 0.116E+03   0.593E+01 0.414E+01 -.248E+01   -.835E-03 -.276E-03 -.164E-02
   -.303E+02 0.994E+02 -.202E+02   0.387E+02 -.996E+02 0.171E+02   -.828E+01 0.378E+01 0.658E+01   0.120E-02 0.146E-03 -.197E-02
   -.886E+02 0.548E+02 -.126E+03   0.972E+02 -.642E+02 0.135E+03   -.167E+01 0.145E+00 -.214E+01   -.194E-02 -.328E-03 -.156E-02
   -.471E+02 -.977E+02 -.168E+01   0.493E+02 0.100E+03 -.479E+00   0.496E+00 -.822E+01 0.533E+01   -.132E-02 0.159E-02 -.161E-02
   0.587E+02 0.299E+02 0.170E+02   -.626E+02 -.346E+02 -.176E+02   -.735E-01 0.517E+01 -.414E+01   -.128E-02 0.533E-03 0.701E-03
   -.211E+02 -.175E+02 0.251E+02   0.235E+02 0.172E+02 -.289E+02   -.368E+01 0.398E+01 0.410E+01   0.209E-02 0.206E-02 -.188E-02
   -.268E+02 0.306E+02 0.225E+02   0.291E+02 -.280E+02 -.223E+02   -.420E+01 -.687E+01 0.365E+00   0.132E-02 0.564E-03 -.644E-03
   -.401E+02 -.108E+03 0.187E+02   0.483E+02 0.124E+03 -.368E+02   -.104E+02 -.179E+02 0.209E+02   0.488E-03 -.162E-02 -.125E-02
   -.456E+02 -.129E+03 0.180E+02   0.475E+02 0.135E+03 -.177E+02   -.466E+01 -.756E+01 0.369E+00   0.916E-03 -.626E-03 -.862E-03
   0.466E+02 -.543E+02 -.155E+01   -.476E+02 0.621E+02 0.301E+01   0.877E+00 -.509E+01 -.461E+01   0.144E-02 -.103E-02 -.367E-03
   0.145E+01 -.980E+02 0.157E+03   -.478E+01 0.103E+03 -.166E+03   0.608E+01 -.413E+01 0.653E+01   -.245E-02 0.148E-03 -.420E-04
   0.849E+02 0.480E+00 0.132E+03   -.871E+02 0.178E+01 -.132E+03   0.484E+01 -.222E+01 0.250E+01   -.123E-02 0.139E-03 0.897E-03
   0.579E+01 0.830E+02 0.412E+02   -.970E+01 -.809E+02 -.534E+02   0.512E+01 -.168E+01 0.131E+02   0.853E-03 0.227E-02 -.196E-02
   0.108E+03 0.244E+02 0.780E+02   -.114E+03 -.284E+02 -.799E+02   0.983E+01 0.539E+01 -.181E+01   0.153E-02 0.330E-03 0.147E-02
   -.245E+02 0.111E+01 -.187E+01   0.277E+02 -.462E+01 -.344E+01   -.437E+01 0.392E+01 0.664E+01   0.280E-02 0.132E-02 -.156E-02
   0.187E+02 -.828E+02 0.122E+03   -.225E+02 0.821E+02 -.129E+03   0.540E+01 0.104E+01 0.576E+01   0.116E-02 -.595E-03 0.242E-03
   0.774E+02 -.371E+02 0.270E+02   -.832E+02 0.424E+02 -.253E+02   0.760E+01 -.615E+01 0.754E+00   -.197E-03 -.729E-03 0.840E-03
   -.584E+02 -.297E+01 0.123E+03   0.562E+02 0.877E+01 -.127E+03   0.780E+00 -.254E+01 0.573E+00   -.142E-02 -.487E-04 0.366E-03
   0.451E+02 0.396E+02 -.459E+02   -.485E+02 -.431E+02 0.551E+02   0.874E+00 0.565E+01 -.411E+01   0.144E-02 -.723E-03 0.201E-02
   0.293E+02 0.164E+02 0.251E+02   -.370E+02 -.179E+02 -.283E+02   0.556E+01 0.307E+01 0.514E-01   0.101E-02 -.156E-02 0.147E-02
   -.720E+02 -.291E+02 -.123E+02   0.724E+02 0.283E+02 0.159E+02   -.825E+00 -.192E+01 -.345E+01   -.865E-03 0.304E-02 -.201E-02
   -.988E+02 -.150E+03 0.310E+02   0.108E+03 0.167E+03 -.262E+02   -.117E+02 -.230E+02 -.679E+01   0.165E-02 0.137E-02 0.229E-02
   -.280E+02 -.559E+02 0.468E+02   0.265E+02 0.591E+02 -.482E+02   -.499E+01 -.108E+01 0.420E+01   0.793E-03 0.156E-02 -.325E-03
   0.816E+02 -.269E+02 0.577E+02   -.858E+02 0.290E+02 -.594E+02   0.363E+01 0.260E+00 -.281E+01   0.361E-03 0.500E-03 -.662E-03
   -.103E+03 -.197E+02 0.823E+02   0.113E+03 0.181E+02 -.866E+02   -.707E+01 -.193E+01 0.452E+00   0.167E-02 -.137E-02 0.115E-02
   -.833E+02 -.481E+00 0.856E+02   0.860E+02 0.254E+01 -.869E+02   -.754E+01 -.251E+01 0.124E+01   0.430E-04 -.442E-03 0.687E-03
   -.997E+02 -.182E+01 -.336E+02   0.103E+03 0.148E+01 0.385E+02   -.546E+00 -.190E+01 -.559E+01   0.838E-03 0.142E-02 -.106E-02
   -.727E+01 -.218E+02 0.499E+02   0.839E+01 0.242E+02 -.482E+02   0.334E+01 -.307E+01 -.797E+00   0.103E-02 -.796E-03 0.150E-02
   0.734E+02 -.168E+02 -.774E+02   -.730E+02 0.158E+02 0.848E+02   0.819E+00 0.193E+01 -.109E+02   0.212E-02 0.792E-03 0.116E-02
[...]
   -.621E+02 -.110E+03 -.256E+03   0.898E+02 0.136E+03 0.279E+03   -.289E+02 -.242E+02 -.227E+02   -.203E-02 -.283E-03 -.172E-02
   -.523E+02 0.113E+03 -.242E+03   0.369E+02 -.156E+03 0.248E+03   0.164E+02 0.455E+02 -.678E+01   -.276E-02 -.387E-03 -.250E-02
   -.165E+03 -.359E+02 0.205E+03   0.197E+03 0.212E+02 -.214E+03   -.342E+02 0.152E+02 0.101E+02   -.717E-02 -.535E-03 0.166E-02
   0.359E-01 0.142E+03 0.711E+02   0.121E+02 -.161E+03 -.103E+03   -.115E+02 0.170E+02 0.316E+02   0.217E-02 0.299E-02 -.157E-02
   -.932E+02 -.161E+03 -.226E+03   0.115E+03 0.190E+03 0.233E+03   -.251E+02 -.323E+02 -.669E+01   0.290E-02 -.305E-02 -.228E-02
   -.974E+02 -.813E+01 0.137E+03   0.135E+03 0.164E+02 -.137E+03   -.378E+02 -.817E+01 -.138E+01   -.276E-02 -.268E-02 0.461E-02
   -.154E+03 0.524E+02 0.736E+01   0.196E+03 -.685E+02 -.232E+02   -.410E+02 0.148E+02 0.146E+02   -.119E-02 0.463E-03 0.422E-03
   0.497E+02 0.209E+03 0.776E+01   -.637E+02 -.233E+03 0.910E+00   0.164E+02 0.261E+02 -.101E+02   -.178E-02 0.377E-02 0.129E-02
   0.110E+03 0.168E+03 -.501E+02   -.127E+03 -.190E+03 0.508E+02   0.176E+02 0.234E+02 -.171E+01   0.371E-02 0.238E-02 -.392E-02
   -.422E+02 0.128E+02 -.151E+02   0.227E+02 -.337E+02 0.201E+02   0.225E+02 0.248E+02 -.541E+01   -.514E-03 -.151E-02 0.184E-02
   -.106E+03 0.131E+03 0.311E+01   0.150E+03 -.166E+03 0.135E+01   -.435E+02 0.318E+02 -.439E+01   -.232E-02 -.165E-02 0.302E-02
   0.853E+02 0.691E+02 -.299E+03   -.106E+03 -.106E+03 0.335E+03   0.192E+02 0.360E+02 -.346E+02   -.552E-02 -.171E-02 -.941E-03
   0.173E+03 -.678E+02 -.255E+03   -.197E+03 0.104E+03 0.272E+03   0.247E+02 -.376E+02 -.171E+02   -.573E-03 0.125E-02 -.576E-02
   0.948E+00 -.727E+02 0.640E+02   0.193E+02 0.911E+02 -.106E+03   -.211E+02 -.178E+02 0.422E+02   0.467E-02 0.220E-02 0.412E-02
   0.112E+03 -.684E+02 -.527E+02   -.277E-12 -.270E-12 0.142E-12   -.112E+03 0.683E+02 0.529E+02   0.786E-02 0.484E-02 0.278E-02

 POSITION                                       TOTAL-FORCE (eV/Angst)
      8.16701      4.69223      6.76919        -0.998292     -3.387112     -3.095647
      8.91426      0.10315      7.54865         5.240653      1.060642      0.903068
      6.66264      6.06354      2.62575         0.705110     -1.674068      1.524505
      9.88983      5.46768      3.21946         2.861028      2.802925      4.147390
      3.00302      5.86912      4.88684        -1.129588     -3.047273      0.398492
      5.12628      7.04927      8.29449         0.863813     -2.047144      2.091812
      9.60540      1.28063      3.24855        -1.802955     -0.124995      2.308455
      9.76536      9.92401      4.80762        -1.182309     -0.458049     -0.501106
      8.90122      0.88742     10.53000        -1.645480      2.041028      5.102367
      4.65625      8.04827      7.10429        -2.186157      1.500488     -0.419677
      6.29196      1.55142      9.80659         1.228789      1.431356     -2.077900
      6.19229      2.75614      3.66947         2.163640      0.494710      0.041032
      5.15946      3.43118      0.50528         2.135229      5.258391     -2.087071
      9.20121      5.01370     10.02952        -3.171968      5.652315     -2.372553
      6.99433      3.93928      5.51686         0.173772      1.652550      2.259431
      3.01956      9.24273      0.58541         2.533605     -0.556378      1.925658
      0.06394      5.82078      7.48691        -4.328432      7.357596     -5.492063
      0.96366      8.39772      3.97785         3.498795      6.234582      1.211862
      5.35236      7.57148      0.59572        -1.266994      1.753393     -3.267168
      1.61769      4.85013      8.79219        -3.815294     -1.868371     -1.181949
      7.88727      1.77285      5.13839         4.447220     -3.801143      1.748533
      6.43097      0.49116      6.15426         0.092128      4.543886     -0.709516
      7.03686      8.17134      3.24056        -0.466060      3.534795     -1.818381
      9.92019      3.69447      3.18421         4.359124     -4.815928      6.463841
      3.68208     10.43092      7.62978         0.101315     -0.797019      0.857406
      4.86512      9.57318      4.01526        -3.040089     -5.431179      1.729336
      5.55607      8.43941      2.90092         2.426612      1.659251      5.021832
      1.05357      8.05368      8.68417        -1.941949      1.451801     -1.092117
      3.04941      9.92810      9.00877         3.939999     -0.999974     -0.566511
      8.03159      0.83961      6.26954        -8.454955      1.746988     -2.564844
      1.79392      1.98331      5.91493         2.924433      1.233869     -4.477038
      1.61160      5.13858      9.99449         1.382143     -0.636087      1.125893
      2.31041      6.16202      0.01782         0.145936      3.645542      3.459895
      0.25347      4.86442      8.01992         6.937594     -9.246226      6.357894
      8.42844      6.05531      9.78236         2.721213     -5.581708      3.173062
      6.75890      2.68013      5.21064        -4.014897      0.487178     -4.688818
      3.65437      8.82999      9.95177        -1.206430      3.666585      0.219699
      5.65164      4.48404      0.02652        -1.931678     -4.257503      0.493176
      6.70881      2.25927      8.97144        -2.162546     -2.467021      2.868816
      2.10292      1.28334     10.38660        -2.719014     -1.945702      0.665470
      4.53529      9.31231      6.80498        -0.084687      2.663757     -3.162810
      8.04669      8.72968      2.29415         2.744479      1.235586     -2.095877
      8.65048     10.11607      4.22061         2.551000      0.040053      2.454824
      6.05324      5.48735      9.82814         1.207418      0.374848      0.924160
      4.09217      9.42835      5.19686         3.811220      1.367924     -3.703823
      4.68218      7.89195      9.91408        -1.204777      0.407871      1.324512
      4.60770      0.22226      1.68743         1.582748      0.388839     -2.054909
      5.83276      9.88398      6.23508         1.805618     -0.835311      2.388753
      0.07080      2.92268      4.09341        -1.446524      3.263162     -3.924127
      2.85056      1.34932      3.37256        -2.521202      2.177957      5.056585
      2.39827      1.88873      2.14623        -2.096966      1.602961     -3.139826
      7.19972      6.44612     10.22275        -0.441896     -2.741184      0.109645
      1.50307      9.44740      4.28683        -2.933291     -5.873445     -1.943837
      5.23607      8.46319      1.60362        -6.483358      2.113619      2.781297
      8.80593      0.97367      4.18614        -0.595841      2.346342     -4.518023
      3.65404      1.24557      2.35765         2.493828     -3.536655     -3.813981
      0.69680      2.44450      5.22813        -4.831720     -0.458961     -0.148487
      6.49551      6.86858      0.77876         2.872831     -2.227346     -0.630792
      2.85239      1.60952      4.83669         4.470155     -0.731295      0.827065
      3.97757      9.37019      1.73101         1.228825      0.983993     -3.545612
[...]
      7.01271      6.44040      4.38463        -1.016820     -1.690866     -1.969737
      9.82982      1.09547      8.42840        -1.256857      1.487112      0.492741
     10.27996      3.56320      8.14637         1.090239      2.727748     -0.479581
      9.30587      7.96931      1.99482        -1.676735      0.440167      0.978108
      5.66679      6.11385      7.06981         0.688274     -1.566331     -0.219182
      4.65817      0.96944      7.86567        -3.232828     -2.738475      0.119903
      0.88772      5.79540      3.33852        -0.338107      0.127492     -0.880687
     10.28036     10.14873      7.01708         1.085331     -1.300492     -1.199228
      0.44576      0.20729      1.58304         2.392731      2.346648     -1.407343
      3.81666      5.79978      8.45496         1.022957      1.783879     -1.002429
      1.76671      4.56242      5.25513         2.978371      3.790088     -0.438115
      6.91201      9.08200      6.32479        -0.148106     -2.938502      0.080741
      8.29747      9.72274      8.52775        -1.724616     -1.291678      1.404505
      0.39559      9.18645      9.16545         1.104066     -1.858012     -0.303002
      3.66867      6.49221      3.60024        -0.804100      0.566000      0.645100
    total drift:                                0.018462     -0.081780      0.135370

  FREE ENERGIE OF THE ION-ELECTRON SYSTEM (eV)
  free  energy   TOTEN  =      -655.49834995 eV

  energy  without entropy=     -655.49733742  energy(sigma->0) =     -655.49784369

 total charge

[...]

 magnetization (x)

# of ion       s       p       d       tot
    1       -0.000  -0.000   0.000  -0.001
    2        0.001  -0.000   0.000   0.000
    3        0.007   0.004   0.000   0.011
    4        0.013   0.013   0.000   0.025
    5        0.000   0.000   0.000   0.001
    6       -0.001  -0.002   0.000  -0.002
    7       -0.000   0.018   0.000   0.018
    8        0.000   0.004   0.000   0.004
    9        0.000   0.001   0.000   0.001
   10        0.000   0.008   0.000   0.008
   11        0.000   0.001   0.000   0.002
   12        0.000   0.004   0.000   0.004
   13       -0.000  -0.039   0.000  -0.039
   14       -0.001  -0.110   0.000  -0.112
   15        0.000   0.000   0.000   0.001
   16        0.006   0.028   0.000   0.033
   17       -0.000   0.001   0.000   0.001
   18        0.000   0.004   0.000   0.004
   19       -0.004  -0.041   0.000  -0.044
   20        0.000   0.001   0.000   0.002
   21        0.013   0.179   0.000   0.192
   22        0.007   0.103   0.000   0.110
   23       -0.004  -0.003   0.000  -0.007
   24        0.055   0.241   0.000   0.296
   25       -0.001  -0.004   0.000  -0.005
   26       -0.014  -0.052   0.000  -0.067
   27       -0.001  -0.012   0.000  -0.013
   28        0.002   0.001   0.000   0.003
   29        0.015   0.167   0.000   0.182
   30       -0.003  -0.034   0.000  -0.037
   31       -0.008  -0.066   0.000  -0.075
   32       -0.000  -0.001   0.000  -0.001
   33        0.001   0.002   0.000   0.003
   34        0.000  -0.000   0.000  -0.000
   35       -0.017  -0.109   0.000  -0.125
   36       -0.003  -0.009   0.000  -0.012
   37       -0.003  -0.037   0.000  -0.040
   38        0.003  -0.012   0.000  -0.009
   39       -0.001  -0.002   0.000  -0.003
   40        0.022   0.141   0.000   0.163
   41       -0.001   0.005   0.000   0.004
   42       -0.000  -0.006   0.000  -0.006
   43        0.001   0.000   0.000   0.001
   44        0.001  -0.027   0.000  -0.026
   45        0.009   0.111   0.000   0.120
   46        0.004   0.064   0.000   0.069
   47        0.001   0.010   0.000   0.011
   48        0.005   0.049   0.000   0.054
   49       -0.006  -0.086   0.000  -0.092
   50       -0.002  -0.013   0.000  -0.015
   51        0.001   0.001   0.000   0.002
   52        0.003   0.022   0.000   0.025
   53        0.002   0.002   0.000   0.003
   54       -0.000   0.003   0.000   0.003
   55       -0.002  -0.004   0.000  -0.006
   56        0.004   0.041   0.000   0.046
   57        0.009   0.076   0.000   0.085
   58        0.000   0.008   0.000   0.008
   59        0.007   0.078   0.000   0.084
   60        0.065   0.238   0.000   0.303
[...]
   94       -0.000  -0.005   0.000  -0.005
   95       -0.000  -0.003   0.000  -0.003
   96        0.000  -0.000   0.000  -0.000
   97       -0.000  -0.002   0.000  -0.002
   98        0.000   0.002   0.000   0.002
   99        0.001   0.017   0.000   0.018
  100        0.000   0.012   0.000   0.013
  101        0.000  -0.000   0.000   0.000
  102        0.000   0.013   0.000   0.014
  103        0.000   0.003   0.000   0.003
  104        0.000  -0.001   0.000  -0.000
  105        0.000   0.018   0.000   0.018
  106       -0.000  -0.001   0.000  -0.001
  107       -0.000   0.000   0.000  -0.000
  108       -0.000  -0.001   0.000  -0.001
tot          0.203   0.996   0.000   1.198